p edge 25 34
e 1 2
e 1 7
e 1 12
e 1 18
e 2 6
e 2 7
e 2 8
e 2 10
e 3 20
e 3 22
e 3 24
e 4 7
e 4 21
e 5 14
e 5 18
e 6 9
e 6 25
e 7 13
e 7 14
e 7 24
e 8 13
e 8 17
e 9 14
e 10 16
e 11 16
e 12 21
e 12 22
e 13 18
e 14 17
e 15 24
e 16 21
e 19 24
e 19 25
e 22 25
